p cnf 620 1785
a 1 2 3 4 5 6 7 8 9 10 11 12 13 14 15 16 17 18 19 20 21 22 23 24 25 26 27 28 29 30 31 32 33 34 35 36 37 38 39 40 41 42 43 44 45 46 47 48 49 50 51 52 53 54 55 56 57 58 59 60 61 62 63 64 65 66 67 68 69 70 71 72 73 74 75 76 77 78 79 80 81 82 83 84 85 86 87 88 89 90 91 92 93 94 95 96 0
e 97 98 99 100 101 102 103 104 105 106 107 108 109 110 111 112 113 114 115 116 117 118 119 120 121 122 123 124 125 126 127 128 129 130 131 132 133 134 135 136 137 138 139 140 141 142 143 144 145 146 147 148 149 150 151 152 153 154 155 156 157 158 159 160 161 162 163 164 165 166 167 168 169 170 171 172 173 174 175 176 177 178 179 180 181 182 183 184 185 186 187 188 189 190 191 192 193 194 195 196 197 198 199 200 201 202 203 204 205 206 207 208 209 210 211 212 213 214 215 216 217 218 219 220 221 222 223 224 225 226 227 228 229 230 231 232 233 234 235 236 237 238 239 240 241 242 243 244 245 246 247 248 249 250 251 252 253 254 255 256 257 258 259 260 261 262 263 264 265 266 267 268 269 270 271 272 273 274 275 276 277 278 279 280 281 282 283 284 285 286 287 288 289 290 291 292 293 294 295 296 297 298 299 300 301 302 303 304 305 306 307 308 309 310 311 312 313 314 315 316 317 318 319 320 321 322 323 324 325 326 327 328 329 330 331 332 333 334 335 336 337 338 339 340 341 342 343 344 345 346 347 348 349 350 351 352 353 354 355 356 357 358 359 360 361 362 363 364 365 366 367 368 369 370 371 372 373 374 375 376 377 378 379 380 381 382 383 384 385 386 387 388 389 390 391 392 393 394 395 396 397 398 399 400 401 402 403 404 405 406 407 408 409 410 411 412 413 414 415 416 417 418 419 420 421 422 423 424 425 426 427 428 429 430 431 432 433 434 435 436 437 438 439 440 441 442 443 444 445 446 447 448 449 450 451 452 453 454 455 456 457 458 459 460 461 462 463 464 465 466 467 468 469 470 471 472 473 474 475 476 477 478 479 480 481 482 483 484 485 486 487 488 489 490 491 492 493 494 495 496 497 498 499 500 501 502 503 504 505 506 507 508 509 510 511 512 513 514 515 516 517 518 519 520 521 522 523 524 525 526 527 528 529 530 531 532 533 534 535 536 537 538 539 540 541 542 543 544 545 546 547 548 549 550 551 552 553 554 555 556 557 558 559 560 561 562 563 564 565 566 567 568 569 570 571 572 573 574 575 576 577 578 579 580 581 582 583 584 585 586 587 588 589 590 591 592 593 594 595 596 597 598 599 600 601 602 603 604 605 606 607 608 609 610 611 612 613 614 615 616 617 618 619 0
1 -169 0
-2 -169 0
-3 -169 0
-4 -169 0
-5 -169 0
-6 -169 0
2 3 4 5 6 169 -1 0
7 -170 0
-8 -170 0
9 -170 0
-10 -170 0
-11 -170 0
-12 -170 0
8 10 11 12 170 -7 -9 0
13 -171 0
14 -171 0
15 -171 0
-16 -171 0
-17 -171 0
-18 -171 0
16 17 18 171 -13 -14 -15 0
19 -172 0
20 -172 0
-21 -172 0
22 -172 0
-23 -172 0
-24 -172 0
21 23 24 172 -19 -20 -22 0
169 -173 0
170 -173 0
171 -173 0
172 -173 0
173 -169 -170 -171 -172 0
7 -174 0
-8 -174 0
9 -174 0
-10 -174 0
-11 -174 0
-12 -174 0
8 10 11 12 174 -7 -9 0
13 -175 0
-14 -175 0
-15 -175 0
-16 -175 0
-17 -175 0
-18 -175 0
14 15 16 17 18 175 -13 0
7 -176 0
-8 -176 0
-9 -176 0
-10 -176 0
-11 -176 0
-12 -176 0
8 9 10 11 12 176 -7 0
-176 -177 0
19 -177 0
176 177 -19 0
178 -176 0
178 -177 0
176 177 -178 0
-176 -179 0
20 -179 0
176 179 -20 0
180 -176 0
180 -179 0
176 179 -180 0
-176 -181 0
21 -181 0
176 181 -21 0
-176 -182 0
22 -182 0
176 182 -22 0
-176 -183 0
23 -183 0
176 183 -23 0
-176 -184 0
24 -184 0
176 184 -24 0
-175 -185 0
178 -185 0
175 185 -178 0
186 -175 0
186 -185 0
175 185 -186 0
-175 -187 0
180 -187 0
175 187 -180 0
188 -175 0
188 -187 0
175 187 -188 0
-175 -189 0
181 -189 0
175 189 -181 0
190 -175 0
190 -189 0
175 189 -190 0
-175 -191 0
182 -191 0
175 191 -182 0
-175 -192 0
183 -192 0
175 192 -183 0
-175 -193 0
184 -193 0
175 193 -184 0
-174 -194 0
186 -194 0
174 194 -186 0
195 -174 0
195 -194 0
174 194 -195 0
-174 -196 0
188 -196 0
174 196 -188 0
-174 -197 0
190 -197 0
174 197 -190 0
198 -174 0
198 -197 0
174 197 -198 0
-174 -199 0
191 -199 0
174 199 -191 0
-174 -200 0
192 -200 0
174 200 -192 0
-174 -201 0
193 -201 0
174 201 -193 0
-25 -195 -202 0
25 195 -202 0
195 202 -25 0
25 202 -195 0
-26 -196 -203 0
26 196 -203 0
196 203 -26 0
26 203 -196 0
-27 -198 -204 0
27 198 -204 0
198 204 -27 0
27 204 -198 0
-28 -199 -205 0
28 199 -205 0
199 205 -28 0
28 205 -199 0
-29 -200 -206 0
29 200 -206 0
200 206 -29 0
29 206 -200 0
-30 -201 -207 0
30 201 -207 0
201 207 -30 0
30 207 -201 0
-202 -208 0
-203 -208 0
-204 -208 0
-205 -208 0
-206 -208 0
-207 -208 0
202 203 204 205 206 207 208 0
-31 -13 -209 0
31 13 -209 0
13 209 -31 0
31 209 -13 0
-32 -14 -210 0
32 14 -210 0
14 210 -32 0
32 210 -14 0
-33 -15 -211 0
33 15 -211 0
15 211 -33 0
33 211 -15 0
-34 -16 -212 0
34 16 -212 0
16 212 -34 0
34 212 -16 0
-35 -17 -213 0
35 17 -213 0
17 213 -35 0
35 213 -17 0
-36 -18 -214 0
36 18 -214 0
18 214 -36 0
36 214 -18 0
-209 -215 0
-210 -215 0
-211 -215 0
-212 -215 0
-213 -215 0
-214 -215 0
209 210 211 212 213 214 215 0
-37 -1 -216 0
37 1 -216 0
1 216 -37 0
37 216 -1 0
-38 -2 -217 0
38 2 -217 0
2 217 -38 0
38 217 -2 0
-39 -3 -218 0
39 3 -218 0
3 218 -39 0
39 218 -3 0
-40 -4 -219 0
40 4 -219 0
4 219 -40 0
40 219 -4 0
-41 -5 -220 0
41 5 -220 0
5 220 -41 0
41 220 -5 0
-42 -6 -221 0
42 6 -221 0
6 221 -42 0
42 221 -6 0
-216 -222 0
-217 -222 0
-218 -222 0
-219 -222 0
-220 -222 0
-221 -222 0
216 217 218 219 220 221 222 0
223 -20 0
20 -223 0
-21 -223 -224 0
21 223 -224 0
223 224 -21 0
21 224 -223 0
21 -225 0
223 -225 0
225 -21 -223 0
226 -225 0
225 -226 0
-22 -226 -227 0
22 226 -227 0
226 227 -22 0
22 227 -226 0
22 -228 0
226 -228 0
228 -22 -226 0
229 -228 0
228 -229 0
-23 -229 -230 0
23 229 -230 0
229 230 -23 0
23 230 -229 0
23 -231 0
229 -231 0
231 -23 -229 0
232 -231 0
231 -232 0
-24 -232 -233 0
24 232 -233 0
232 233 -24 0
24 233 -232 0
24 -234 0
232 -234 0
234 -24 -232 0
235 -234 0
234 -235 0
-43 -19 -236 0
43 19 -236 0
19 236 -43 0
43 236 -19 0
20 -44 -237 0
44 -20 -237 0
237 -44 -20 0
44 20 237 0
-45 -224 -238 0
45 224 -238 0
224 238 -45 0
45 238 -224 0
-46 -227 -239 0
46 227 -239 0
227 239 -46 0
46 239 -227 0
-47 -230 -240 0
47 230 -240 0
230 240 -47 0
47 240 -230 0
-48 -233 -241 0
48 233 -241 0
233 241 -48 0
48 241 -233 0
-236 -242 0
-237 -242 0
-238 -242 0
-239 -242 0
-240 -242 0
-241 -242 0
236 237 238 239 240 241 242 0
208 -243 0
215 -243 0
222 -243 0
242 -243 0
243 -208 -215 -222 -242 0
31 -244 0
-32 -244 0
33 -244 0
-34 -244 0
-35 -244 0
-36 -244 0
32 34 35 36 244 -31 -33 0
37 -245 0
-38 -245 0
-39 -245 0
-40 -245 0
-41 -245 0
-42 -245 0
38 39 40 41 42 245 -37 0
31 -246 0
-32 -246 0
-33 -246 0
-34 -246 0
-35 -246 0
-36 -246 0
32 33 34 35 36 246 -31 0
-246 -247 0
43 -247 0
246 247 -43 0
248 -246 0
248 -247 0
246 247 -248 0
-246 -249 0
44 -249 0
246 249 -44 0
250 -246 0
250 -249 0
246 249 -250 0
-246 -251 0
45 -251 0
246 251 -45 0
-246 -252 0
46 -252 0
246 252 -46 0
-246 -253 0
47 -253 0
246 253 -47 0
-246 -254 0
48 -254 0
246 254 -48 0
-245 -255 0
248 -255 0
245 255 -248 0
256 -245 0
256 -255 0
245 255 -256 0
-245 -257 0
250 -257 0
245 257 -250 0
258 -245 0
258 -257 0
245 257 -258 0
-245 -259 0
251 -259 0
245 259 -251 0
260 -245 0
260 -259 0
245 259 -260 0
-245 -261 0
252 -261 0
245 261 -252 0
-245 -262 0
253 -262 0
245 262 -253 0
-245 -263 0
254 -263 0
245 263 -254 0
-244 -264 0
256 -264 0
244 264 -256 0
265 -244 0
265 -264 0
244 264 -265 0
-244 -266 0
258 -266 0
244 266 -258 0
-244 -267 0
260 -267 0
244 267 -260 0
268 -244 0
268 -267 0
244 267 -268 0
-244 -269 0
261 -269 0
244 269 -261 0
-244 -270 0
262 -270 0
244 270 -262 0
-244 -271 0
263 -271 0
244 271 -263 0
-49 -265 -272 0
49 265 -272 0
265 272 -49 0
49 272 -265 0
-50 -266 -273 0
50 266 -273 0
266 273 -50 0
50 273 -266 0
-51 -268 -274 0
51 268 -274 0
268 274 -51 0
51 274 -268 0
-52 -269 -275 0
52 269 -275 0
269 275 -52 0
52 275 -269 0
-53 -270 -276 0
53 270 -276 0
270 276 -53 0
53 276 -270 0
-54 -271 -277 0
54 271 -277 0
271 277 -54 0
54 277 -271 0
-272 -278 0
-273 -278 0
-274 -278 0
-275 -278 0
-276 -278 0
-277 -278 0
272 273 274 275 276 277 278 0
-55 -37 -279 0
55 37 -279 0
37 279 -55 0
55 279 -37 0
-56 -38 -280 0
56 38 -280 0
38 280 -56 0
56 280 -38 0
-57 -39 -281 0
57 39 -281 0
39 281 -57 0
57 281 -39 0
-58 -40 -282 0
58 40 -282 0
40 282 -58 0
58 282 -40 0
-59 -41 -283 0
59 41 -283 0
41 283 -59 0
59 283 -41 0
-60 -42 -284 0
60 42 -284 0
42 284 -60 0
60 284 -42 0
-279 -285 0
-280 -285 0
-281 -285 0
-282 -285 0
-283 -285 0
-284 -285 0
279 280 281 282 283 284 285 0
-61 -25 -286 0
61 25 -286 0
25 286 -61 0
61 286 -25 0
-62 -26 -287 0
62 26 -287 0
26 287 -62 0
62 287 -26 0
-63 -27 -288 0
63 27 -288 0
27 288 -63 0
63 288 -27 0
-64 -28 -289 0
64 28 -289 0
28 289 -64 0
64 289 -28 0
-65 -29 -290 0
65 29 -290 0
29 290 -65 0
65 290 -29 0
-66 -30 -291 0
66 30 -291 0
30 291 -66 0
66 291 -30 0
-286 -292 0
-287 -292 0
-288 -292 0
-289 -292 0
-290 -292 0
-291 -292 0
286 287 288 289 290 291 292 0
293 -44 0
44 -293 0
-45 -293 -294 0
45 293 -294 0
293 294 -45 0
45 294 -293 0
45 -295 0
293 -295 0
295 -45 -293 0
296 -295 0
295 -296 0
-46 -296 -297 0
46 296 -297 0
296 297 -46 0
46 297 -296 0
46 -298 0
296 -298 0
298 -46 -296 0
299 -298 0
298 -299 0
-47 -299 -300 0
47 299 -300 0
299 300 -47 0
47 300 -299 0
47 -301 0
299 -301 0
301 -47 -299 0
302 -301 0
301 -302 0
-48 -302 -303 0
48 302 -303 0
302 303 -48 0
48 303 -302 0
48 -304 0
302 -304 0
304 -48 -302 0
305 -304 0
304 -305 0
-67 -43 -306 0
67 43 -306 0
43 306 -67 0
67 306 -43 0
44 -68 -307 0
68 -44 -307 0
307 -68 -44 0
68 44 307 0
-69 -294 -308 0
69 294 -308 0
294 308 -69 0
69 308 -294 0
-70 -297 -309 0
70 297 -309 0
297 309 -70 0
70 309 -297 0
-71 -300 -310 0
71 300 -310 0
300 310 -71 0
71 310 -300 0
-72 -303 -311 0
72 303 -311 0
303 311 -72 0
72 311 -303 0
-306 -312 0
-307 -312 0
-308 -312 0
-309 -312 0
-310 -312 0
-311 -312 0
306 307 308 309 310 311 312 0
278 -313 0
285 -313 0
292 -313 0
312 -313 0
313 -278 -285 -292 -312 0
55 -314 0
-56 -314 0
57 -314 0
-58 -314 0
-59 -314 0
-60 -314 0
56 58 59 60 314 -55 -57 0
61 -315 0
-62 -315 0
-63 -315 0
-64 -315 0
-65 -315 0
-66 -315 0
62 63 64 65 66 315 -61 0
55 -316 0
-56 -316 0
-57 -316 0
-58 -316 0
-59 -316 0
-60 -316 0
56 57 58 59 60 316 -55 0
-316 -317 0
67 -317 0
316 317 -67 0
318 -316 0
318 -317 0
316 317 -318 0
-316 -319 0
68 -319 0
316 319 -68 0
320 -316 0
320 -319 0
316 319 -320 0
-316 -321 0
69 -321 0
316 321 -69 0
-316 -322 0
70 -322 0
316 322 -70 0
-316 -323 0
71 -323 0
316 323 -71 0
-316 -324 0
72 -324 0
316 324 -72 0
-315 -325 0
318 -325 0
315 325 -318 0
326 -315 0
326 -325 0
315 325 -326 0
-315 -327 0
320 -327 0
315 327 -320 0
328 -315 0
328 -327 0
315 327 -328 0
-315 -329 0
321 -329 0
315 329 -321 0
330 -315 0
330 -329 0
315 329 -330 0
-315 -331 0
322 -331 0
315 331 -322 0
-315 -332 0
323 -332 0
315 332 -323 0
-315 -333 0
324 -333 0
315 333 -324 0
-314 -334 0
326 -334 0
314 334 -326 0
335 -314 0
335 -334 0
314 334 -335 0
-314 -336 0
328 -336 0
314 336 -328 0
-314 -337 0
330 -337 0
314 337 -330 0
338 -314 0
338 -337 0
314 337 -338 0
-314 -339 0
331 -339 0
314 339 -331 0
-314 -340 0
332 -340 0
314 340 -332 0
-314 -341 0
333 -341 0
314 341 -333 0
-73 -335 -342 0
73 335 -342 0
335 342 -73 0
73 342 -335 0
-74 -336 -343 0
74 336 -343 0
336 343 -74 0
74 343 -336 0
-75 -338 -344 0
75 338 -344 0
338 344 -75 0
75 344 -338 0
-76 -339 -345 0
76 339 -345 0
339 345 -76 0
76 345 -339 0
-77 -340 -346 0
77 340 -346 0
340 346 -77 0
77 346 -340 0
-78 -341 -347 0
78 341 -347 0
341 347 -78 0
78 347 -341 0
-342 -348 0
-343 -348 0
-344 -348 0
-345 -348 0
-346 -348 0
-347 -348 0
342 343 344 345 346 347 348 0
-79 -61 -349 0
79 61 -349 0
61 349 -79 0
79 349 -61 0
-80 -62 -350 0
80 62 -350 0
62 350 -80 0
80 350 -62 0
-81 -63 -351 0
81 63 -351 0
63 351 -81 0
81 351 -63 0
-82 -64 -352 0
82 64 -352 0
64 352 -82 0
82 352 -64 0
-83 -65 -353 0
83 65 -353 0
65 353 -83 0
83 353 -65 0
-84 -66 -354 0
84 66 -354 0
66 354 -84 0
84 354 -66 0
-349 -355 0
-350 -355 0
-351 -355 0
-352 -355 0
-353 -355 0
-354 -355 0
349 350 351 352 353 354 355 0
-85 -49 -356 0
85 49 -356 0
49 356 -85 0
85 356 -49 0
-86 -50 -357 0
86 50 -357 0
50 357 -86 0
86 357 -50 0
-87 -51 -358 0
87 51 -358 0
51 358 -87 0
87 358 -51 0
-88 -52 -359 0
88 52 -359 0
52 359 -88 0
88 359 -52 0
-89 -53 -360 0
89 53 -360 0
53 360 -89 0
89 360 -53 0
-90 -54 -361 0
90 54 -361 0
54 361 -90 0
90 361 -54 0
-356 -362 0
-357 -362 0
-358 -362 0
-359 -362 0
-360 -362 0
-361 -362 0
356 357 358 359 360 361 362 0
363 -68 0
68 -363 0
-69 -363 -364 0
69 363 -364 0
363 364 -69 0
69 364 -363 0
69 -365 0
363 -365 0
365 -69 -363 0
366 -365 0
365 -366 0
-70 -366 -367 0
70 366 -367 0
366 367 -70 0
70 367 -366 0
70 -368 0
366 -368 0
368 -70 -366 0
369 -368 0
368 -369 0
-71 -369 -370 0
71 369 -370 0
369 370 -71 0
71 370 -369 0
71 -371 0
369 -371 0
371 -71 -369 0
372 -371 0
371 -372 0
-72 -372 -373 0
72 372 -373 0
372 373 -72 0
72 373 -372 0
72 -374 0
372 -374 0
374 -72 -372 0
375 -374 0
374 -375 0
-91 -67 -376 0
91 67 -376 0
67 376 -91 0
91 376 -67 0
68 -92 -377 0
92 -68 -377 0
377 -92 -68 0
92 68 377 0
-93 -364 -378 0
93 364 -378 0
364 378 -93 0
93 378 -364 0
-94 -367 -379 0
94 367 -379 0
367 379 -94 0
94 379 -367 0
-95 -370 -380 0
95 370 -380 0
370 380 -95 0
95 380 -370 0
-96 -373 -381 0
96 373 -381 0
373 381 -96 0
96 381 -373 0
-376 -382 0
-377 -382 0
-378 -382 0
-379 -382 0
-380 -382 0
-381 -382 0
376 377 378 379 380 381 382 0
348 -383 0
355 -383 0
362 -383 0
382 -383 0
383 -348 -355 -362 -382 0
173 -384 0
243 -384 0
313 -384 0
383 -384 0
384 -173 -243 -313 -383 0
97 -385 0
-98 -385 0
-99 -385 0
-100 -385 0
-101 -385 0
-102 -385 0
98 99 100 101 102 385 -97 0
103 -386 0
-104 -386 0
105 -386 0
-106 -386 0
-107 -386 0
-108 -386 0
104 106 107 108 386 -103 -105 0
109 -387 0
110 -387 0
111 -387 0
-112 -387 0
-113 -387 0
-114 -387 0
112 113 114 387 -109 -110 -111 0
115 -388 0
116 -388 0
-117 -388 0
118 -388 0
-119 -388 0
-120 -388 0
117 119 120 388 -115 -116 -118 0
385 -389 0
386 -389 0
387 -389 0
388 -389 0
389 -385 -386 -387 -388 0
103 -390 0
-104 -390 0
105 -390 0
-106 -390 0
-107 -390 0
-108 -390 0
104 106 107 108 390 -103 -105 0
109 -391 0
-110 -391 0
-111 -391 0
-112 -391 0
-113 -391 0
-114 -391 0
110 111 112 113 114 391 -109 0
103 -392 0
-104 -392 0
-105 -392 0
-106 -392 0
-107 -392 0
-108 -392 0
104 105 106 107 108 392 -103 0
-392 -393 0
115 -393 0
392 393 -115 0
394 -392 0
394 -393 0
392 393 -394 0
-392 -395 0
116 -395 0
392 395 -116 0
396 -392 0
396 -395 0
392 395 -396 0
-392 -397 0
117 -397 0
392 397 -117 0
-392 -398 0
118 -398 0
392 398 -118 0
-392 -399 0
119 -399 0
392 399 -119 0
-392 -400 0
120 -400 0
392 400 -120 0
-391 -401 0
394 -401 0
391 401 -394 0
402 -391 0
402 -401 0
391 401 -402 0
-391 -403 0
396 -403 0
391 403 -396 0
404 -391 0
404 -403 0
391 403 -404 0
-391 -405 0
397 -405 0
391 405 -397 0
406 -391 0
406 -405 0
391 405 -406 0
-391 -407 0
398 -407 0
391 407 -398 0
-391 -408 0
399 -408 0
391 408 -399 0
-391 -409 0
400 -409 0
391 409 -400 0
-390 -410 0
402 -410 0
390 410 -402 0
411 -390 0
411 -410 0
390 410 -411 0
-390 -412 0
404 -412 0
390 412 -404 0
-390 -413 0
406 -413 0
390 413 -406 0
414 -390 0
414 -413 0
390 413 -414 0
-390 -415 0
407 -415 0
390 415 -407 0
-390 -416 0
408 -416 0
390 416 -408 0
-390 -417 0
409 -417 0
390 417 -409 0
-121 -411 -418 0
121 411 -418 0
411 418 -121 0
121 418 -411 0
-122 -412 -419 0
122 412 -419 0
412 419 -122 0
122 419 -412 0
-123 -414 -420 0
123 414 -420 0
414 420 -123 0
123 420 -414 0
-124 -415 -421 0
124 415 -421 0
415 421 -124 0
124 421 -415 0
-125 -416 -422 0
125 416 -422 0
416 422 -125 0
125 422 -416 0
-126 -417 -423 0
126 417 -423 0
417 423 -126 0
126 423 -417 0
-418 -424 0
-419 -424 0
-420 -424 0
-421 -424 0
-422 -424 0
-423 -424 0
418 419 420 421 422 423 424 0
-127 -109 -425 0
127 109 -425 0
109 425 -127 0
127 425 -109 0
-128 -110 -426 0
128 110 -426 0
110 426 -128 0
128 426 -110 0
-129 -111 -427 0
129 111 -427 0
111 427 -129 0
129 427 -111 0
-130 -112 -428 0
130 112 -428 0
112 428 -130 0
130 428 -112 0
-131 -113 -429 0
131 113 -429 0
113 429 -131 0
131 429 -113 0
-132 -114 -430 0
132 114 -430 0
114 430 -132 0
132 430 -114 0
-425 -431 0
-426 -431 0
-427 -431 0
-428 -431 0
-429 -431 0
-430 -431 0
425 426 427 428 429 430 431 0
-133 -97 -432 0
133 97 -432 0
97 432 -133 0
133 432 -97 0
-134 -98 -433 0
134 98 -433 0
98 433 -134 0
134 433 -98 0
-135 -99 -434 0
135 99 -434 0
99 434 -135 0
135 434 -99 0
-136 -100 -435 0
136 100 -435 0
100 435 -136 0
136 435 -100 0
-137 -101 -436 0
137 101 -436 0
101 436 -137 0
137 436 -101 0
-138 -102 -437 0
138 102 -437 0
102 437 -138 0
138 437 -102 0
-432 -438 0
-433 -438 0
-434 -438 0
-435 -438 0
-436 -438 0
-437 -438 0
432 433 434 435 436 437 438 0
439 -116 0
116 -439 0
-117 -439 -440 0
117 439 -440 0
439 440 -117 0
117 440 -439 0
117 -441 0
439 -441 0
441 -117 -439 0
442 -441 0
441 -442 0
-118 -442 -443 0
118 442 -443 0
442 443 -118 0
118 443 -442 0
118 -444 0
442 -444 0
444 -118 -442 0
445 -444 0
444 -445 0
-119 -445 -446 0
119 445 -446 0
445 446 -119 0
119 446 -445 0
119 -447 0
445 -447 0
447 -119 -445 0
448 -447 0
447 -448 0
-120 -448 -449 0
120 448 -449 0
448 449 -120 0
120 449 -448 0
120 -450 0
448 -450 0
450 -120 -448 0
451 -450 0
450 -451 0
-139 -115 -452 0
139 115 -452 0
115 452 -139 0
139 452 -115 0
116 -140 -453 0
140 -116 -453 0
453 -140 -116 0
140 116 453 0
-141 -440 -454 0
141 440 -454 0
440 454 -141 0
141 454 -440 0
-142 -443 -455 0
142 443 -455 0
443 455 -142 0
142 455 -443 0
-143 -446 -456 0
143 446 -456 0
446 456 -143 0
143 456 -446 0
-144 -449 -457 0
144 449 -457 0
449 457 -144 0
144 457 -449 0
-452 -458 0
-453 -458 0
-454 -458 0
-455 -458 0
-456 -458 0
-457 -458 0
452 453 454 455 456 457 458 0
424 -459 0
431 -459 0
438 -459 0
458 -459 0
459 -424 -431 -438 -458 0
127 -460 0
-128 -460 0
129 -460 0
-130 -460 0
-131 -460 0
-132 -460 0
128 130 131 132 460 -127 -129 0
133 -461 0
-134 -461 0
-135 -461 0
-136 -461 0
-137 -461 0
-138 -461 0
134 135 136 137 138 461 -133 0
127 -462 0
-128 -462 0
-129 -462 0
-130 -462 0
-131 -462 0
-132 -462 0
128 129 130 131 132 462 -127 0
-462 -463 0
139 -463 0
462 463 -139 0
464 -462 0
464 -463 0
462 463 -464 0
-462 -465 0
140 -465 0
462 465 -140 0
466 -462 0
466 -465 0
462 465 -466 0
-462 -467 0
141 -467 0
462 467 -141 0
-462 -468 0
142 -468 0
462 468 -142 0
-462 -469 0
143 -469 0
462 469 -143 0
-462 -470 0
144 -470 0
462 470 -144 0
-461 -471 0
464 -471 0
461 471 -464 0
472 -461 0
472 -471 0
461 471 -472 0
-461 -473 0
466 -473 0
461 473 -466 0
474 -461 0
474 -473 0
461 473 -474 0
-461 -475 0
467 -475 0
461 475 -467 0
476 -461 0
476 -475 0
461 475 -476 0
-461 -477 0
468 -477 0
461 477 -468 0
-461 -478 0
469 -478 0
461 478 -469 0
-461 -479 0
470 -479 0
461 479 -470 0
-460 -480 0
472 -480 0
460 480 -472 0
481 -460 0
481 -480 0
460 480 -481 0
-460 -482 0
474 -482 0
460 482 -474 0
-460 -483 0
476 -483 0
460 483 -476 0
484 -460 0
484 -483 0
460 483 -484 0
-460 -485 0
477 -485 0
460 485 -477 0
-460 -486 0
478 -486 0
460 486 -478 0
-460 -487 0
479 -487 0
460 487 -479 0
-145 -481 -488 0
145 481 -488 0
481 488 -145 0
145 488 -481 0
-146 -482 -489 0
146 482 -489 0
482 489 -146 0
146 489 -482 0
-147 -484 -490 0
147 484 -490 0
484 490 -147 0
147 490 -484 0
-148 -485 -491 0
148 485 -491 0
485 491 -148 0
148 491 -485 0
-149 -486 -492 0
149 486 -492 0
486 492 -149 0
149 492 -486 0
-150 -487 -493 0
150 487 -493 0
487 493 -150 0
150 493 -487 0
-488 -494 0
-489 -494 0
-490 -494 0
-491 -494 0
-492 -494 0
-493 -494 0
488 489 490 491 492 493 494 0
-151 -133 -495 0
151 133 -495 0
133 495 -151 0
151 495 -133 0
-152 -134 -496 0
152 134 -496 0
134 496 -152 0
152 496 -134 0
-153 -135 -497 0
153 135 -497 0
135 497 -153 0
153 497 -135 0
-154 -136 -498 0
154 136 -498 0
136 498 -154 0
154 498 -136 0
-155 -137 -499 0
155 137 -499 0
137 499 -155 0
155 499 -137 0
-156 -138 -500 0
156 138 -500 0
138 500 -156 0
156 500 -138 0
-495 -501 0
-496 -501 0
-497 -501 0
-498 -501 0
-499 -501 0
-500 -501 0
495 496 497 498 499 500 501 0
-157 -121 -502 0
157 121 -502 0
121 502 -157 0
157 502 -121 0
-158 -122 -503 0
158 122 -503 0
122 503 -158 0
158 503 -122 0
-159 -123 -504 0
159 123 -504 0
123 504 -159 0
159 504 -123 0
-160 -124 -505 0
160 124 -505 0
124 505 -160 0
160 505 -124 0
-161 -125 -506 0
161 125 -506 0
125 506 -161 0
161 506 -125 0
-162 -126 -507 0
162 126 -507 0
126 507 -162 0
162 507 -126 0
-502 -508 0
-503 -508 0
-504 -508 0
-505 -508 0
-506 -508 0
-507 -508 0
502 503 504 505 506 507 508 0
509 -140 0
140 -509 0
-141 -509 -510 0
141 509 -510 0
509 510 -141 0
141 510 -509 0
141 -511 0
509 -511 0
511 -141 -509 0
512 -511 0
511 -512 0
-142 -512 -513 0
142 512 -513 0
512 513 -142 0
142 513 -512 0
142 -514 0
512 -514 0
514 -142 -512 0
515 -514 0
514 -515 0
-143 -515 -516 0
143 515 -516 0
515 516 -143 0
143 516 -515 0
143 -517 0
515 -517 0
517 -143 -515 0
518 -517 0
517 -518 0
-144 -518 -519 0
144 518 -519 0
518 519 -144 0
144 519 -518 0
144 -520 0
518 -520 0
520 -144 -518 0
521 -520 0
520 -521 0
-163 -139 -522 0
163 139 -522 0
139 522 -163 0
163 522 -139 0
140 -164 -523 0
164 -140 -523 0
523 -164 -140 0
164 140 523 0
-165 -510 -524 0
165 510 -524 0
510 524 -165 0
165 524 -510 0
-166 -513 -525 0
166 513 -525 0
513 525 -166 0
166 525 -513 0
-167 -516 -526 0
167 516 -526 0
516 526 -167 0
167 526 -516 0
-168 -519 -527 0
168 519 -527 0
519 527 -168 0
168 527 -519 0
-522 -528 0
-523 -528 0
-524 -528 0
-525 -528 0
-526 -528 0
-527 -528 0
522 523 524 525 526 527 528 0
494 -529 0
501 -529 0
508 -529 0
528 -529 0
529 -494 -501 -508 -528 0
389 -530 0
459 -530 0
529 -530 0
530 -389 -459 -529 0
-73 -97 -531 0
73 97 -531 0
97 531 -73 0
73 531 -97 0
-74 -98 -532 0
74 98 -532 0
98 532 -74 0
74 532 -98 0
-75 -99 -533 0
75 99 -533 0
99 533 -75 0
75 533 -99 0
-76 -100 -534 0
76 100 -534 0
100 534 -76 0
76 534 -100 0
-77 -101 -535 0
77 101 -535 0
101 535 -77 0
77 535 -101 0
-78 -102 -536 0
78 102 -536 0
102 536 -78 0
78 536 -102 0
-531 -537 0
-532 -537 0
-533 -537 0
-534 -537 0
-535 -537 0
-536 -537 0
531 532 533 534 535 536 537 0
-79 -103 -538 0
79 103 -538 0
103 538 -79 0
79 538 -103 0
-80 -104 -539 0
80 104 -539 0
104 539 -80 0
80 539 -104 0
-81 -105 -540 0
81 105 -540 0
105 540 -81 0
81 540 -105 0
-82 -106 -541 0
82 106 -541 0
106 541 -82 0
82 541 -106 0
-83 -107 -542 0
83 107 -542 0
107 542 -83 0
83 542 -107 0
-84 -108 -543 0
84 108 -543 0
108 543 -84 0
84 543 -108 0
-538 -544 0
-539 -544 0
-540 -544 0
-541 -544 0
-542 -544 0
-543 -544 0
538 539 540 541 542 543 544 0
-85 -109 -545 0
85 109 -545 0
109 545 -85 0
85 545 -109 0
-86 -110 -546 0
86 110 -546 0
110 546 -86 0
86 546 -110 0
-87 -111 -547 0
87 111 -547 0
111 547 -87 0
87 547 -111 0
-88 -112 -548 0
88 112 -548 0
112 548 -88 0
88 548 -112 0
-89 -113 -549 0
89 113 -549 0
113 549 -89 0
89 549 -113 0
-90 -114 -550 0
90 114 -550 0
114 550 -90 0
90 550 -114 0
-545 -551 0
-546 -551 0
-547 -551 0
-548 -551 0
-549 -551 0
-550 -551 0
545 546 547 548 549 550 551 0
-91 -115 -552 0
91 115 -552 0
115 552 -91 0
91 552 -115 0
-92 -116 -553 0
92 116 -553 0
116 553 -92 0
92 553 -116 0
-93 -117 -554 0
93 117 -554 0
117 554 -93 0
93 554 -117 0
-94 -118 -555 0
94 118 -555 0
118 555 -94 0
94 555 -118 0
-95 -119 -556 0
95 119 -556 0
119 556 -95 0
95 556 -119 0
-96 -120 -557 0
96 120 -557 0
120 557 -96 0
96 557 -120 0
-552 -558 0
-553 -558 0
-554 -558 0
-555 -558 0
-556 -558 0
-557 -558 0
552 553 554 555 556 557 558 0
537 -559 0
544 -559 0
551 -559 0
558 -559 0
559 -537 -544 -551 -558 0
-73 -121 -560 0
73 121 -560 0
121 560 -73 0
73 560 -121 0
-74 -122 -561 0
74 122 -561 0
122 561 -74 0
74 561 -122 0
-75 -123 -562 0
75 123 -562 0
123 562 -75 0
75 562 -123 0
-76 -124 -563 0
76 124 -563 0
124 563 -76 0
76 563 -124 0
-77 -125 -564 0
77 125 -564 0
125 564 -77 0
77 564 -125 0
-78 -126 -565 0
78 126 -565 0
126 565 -78 0
78 565 -126 0
-560 -566 0
-561 -566 0
-562 -566 0
-563 -566 0
-564 -566 0
-565 -566 0
560 561 562 563 564 565 566 0
-79 -127 -567 0
79 127 -567 0
127 567 -79 0
79 567 -127 0
-80 -128 -568 0
80 128 -568 0
128 568 -80 0
80 568 -128 0
-81 -129 -569 0
81 129 -569 0
129 569 -81 0
81 569 -129 0
-82 -130 -570 0
82 130 -570 0
130 570 -82 0
82 570 -130 0
-83 -131 -571 0
83 131 -571 0
131 571 -83 0
83 571 -131 0
-84 -132 -572 0
84 132 -572 0
132 572 -84 0
84 572 -132 0
-567 -573 0
-568 -573 0
-569 -573 0
-570 -573 0
-571 -573 0
-572 -573 0
567 568 569 570 571 572 573 0
-85 -133 -574 0
85 133 -574 0
133 574 -85 0
85 574 -133 0
-86 -134 -575 0
86 134 -575 0
134 575 -86 0
86 575 -134 0
-87 -135 -576 0
87 135 -576 0
135 576 -87 0
87 576 -135 0
-88 -136 -577 0
88 136 -577 0
136 577 -88 0
88 577 -136 0
-89 -137 -578 0
89 137 -578 0
137 578 -89 0
89 578 -137 0
-90 -138 -579 0
90 138 -579 0
138 579 -90 0
90 579 -138 0
-574 -580 0
-575 -580 0
-576 -580 0
-577 -580 0
-578 -580 0
-579 -580 0
574 575 576 577 578 579 580 0
-91 -139 -581 0
91 139 -581 0
139 581 -91 0
91 581 -139 0
-92 -140 -582 0
92 140 -582 0
140 582 -92 0
92 582 -140 0
-93 -141 -583 0
93 141 -583 0
141 583 -93 0
93 583 -141 0
-94 -142 -584 0
94 142 -584 0
142 584 -94 0
94 584 -142 0
-95 -143 -585 0
95 143 -585 0
143 585 -95 0
95 585 -143 0
-96 -144 -586 0
96 144 -586 0
144 586 -96 0
96 586 -144 0
-581 -587 0
-582 -587 0
-583 -587 0
-584 -587 0
-585 -587 0
-586 -587 0
581 582 583 584 585 586 587 0
566 -588 0
573 -588 0
580 -588 0
587 -588 0
588 -566 -573 -580 -587 0
-73 -145 -589 0
73 145 -589 0
145 589 -73 0
73 589 -145 0
-74 -146 -590 0
74 146 -590 0
146 590 -74 0
74 590 -146 0
-75 -147 -591 0
75 147 -591 0
147 591 -75 0
75 591 -147 0
-76 -148 -592 0
76 148 -592 0
148 592 -76 0
76 592 -148 0
-77 -149 -593 0
77 149 -593 0
149 593 -77 0
77 593 -149 0
-78 -150 -594 0
78 150 -594 0
150 594 -78 0
78 594 -150 0
-589 -595 0
-590 -595 0
-591 -595 0
-592 -595 0
-593 -595 0
-594 -595 0
589 590 591 592 593 594 595 0
-79 -151 -596 0
79 151 -596 0
151 596 -79 0
79 596 -151 0
-80 -152 -597 0
80 152 -597 0
152 597 -80 0
80 597 -152 0
-81 -153 -598 0
81 153 -598 0
153 598 -81 0
81 598 -153 0
-82 -154 -599 0
82 154 -599 0
154 599 -82 0
82 599 -154 0
-83 -155 -600 0
83 155 -600 0
155 600 -83 0
83 600 -155 0
-84 -156 -601 0
84 156 -601 0
156 601 -84 0
84 601 -156 0
-596 -602 0
-597 -602 0
-598 -602 0
-599 -602 0
-600 -602 0
-601 -602 0
596 597 598 599 600 601 602 0
-85 -157 -603 0
85 157 -603 0
157 603 -85 0
85 603 -157 0
-86 -158 -604 0
86 158 -604 0
158 604 -86 0
86 604 -158 0
-87 -159 -605 0
87 159 -605 0
159 605 -87 0
87 605 -159 0
-88 -160 -606 0
88 160 -606 0
160 606 -88 0
88 606 -160 0
-89 -161 -607 0
89 161 -607 0
161 607 -89 0
89 607 -161 0
-90 -162 -608 0
90 162 -608 0
162 608 -90 0
90 608 -162 0
-603 -609 0
-604 -609 0
-605 -609 0
-606 -609 0
-607 -609 0
-608 -609 0
603 604 605 606 607 608 609 0
-91 -163 -610 0
91 163 -610 0
163 610 -91 0
91 610 -163 0
-92 -164 -611 0
92 164 -611 0
164 611 -92 0
92 611 -164 0
-93 -165 -612 0
93 165 -612 0
165 612 -93 0
93 612 -165 0
-94 -166 -613 0
94 166 -613 0
166 613 -94 0
94 613 -166 0
-95 -167 -614 0
95 167 -614 0
167 614 -95 0
95 614 -167 0
-96 -168 -615 0
96 168 -615 0
168 615 -96 0
96 615 -168 0
-610 -616 0
-611 -616 0
-612 -616 0
-613 -616 0
-614 -616 0
-615 -616 0
610 611 612 613 614 615 616 0
595 -617 0
602 -617 0
609 -617 0
616 -617 0
617 -595 -602 -609 -616 0
618 -559 0
618 -588 0
618 -617 0
559 588 617 -618 0
530 -619 0
618 -619 0
619 -530 -618 0
619 -384 0
